* ENCODING=ISO-8859-1
NAME          CPLEX
ROWS
 N  obj1    
 G  c1      
 G  c2      
 G  c3      
 G  c4      
 G  c5      
 G  c6      
 G  c7      
 G  c8      
 G  c9      
 G  c10     
 G  c11     
 G  c12     
 G  c13     
 G  c14     
 G  c15     
 G  c16     
 G  c17     
 G  c18     
 G  c19     
 G  c20     
 G  c21     
 G  c22     
 G  c23     
 G  c24     
 G  c25     
 G  c26     
 G  c27     
 G  c28     
 G  c29     
 G  c30     
 G  c31     
 G  c32     
 G  c33     
 G  c34     
 G  c35     
 G  c36     
 G  c37     
 G  c38     
 G  c39     
 G  c40     
 G  c41     
 G  c42     
 G  c43     
 G  c44     
 G  c45     
 G  c46     
 G  c47     
 G  c48     
 G  c49     
 G  c50     
 G  c51     
 G  c52     
 G  c53     
 G  c54     
 G  c55     
 G  c56     
 G  c57     
 G  c58     
 G  c59     
 G  c60     
 G  c61     
 G  c62     
 G  c63     
 G  c64     
 G  c65     
 G  c66     
 G  c67     
 G  c68     
 G  c69     
 G  c70     
COLUMNS
    MARK0000  'MARKER'                 'INTORG'
    x1        obj1                            1
    x1        c21                           814
    x1        c24                           483
    x1        c25                           802
    x1        c40                           606
    x1        c52                           419
    x1        c64                           839
    x2        obj1                            1
    x2        c3                            784
    x2        c4                            456
    x2        c13                           406
    x2        c17                           978
    x2        c28                           488
    x2        c42                           386
    x2        c59                           281
    x3        obj1                            1
    x3        c7                            104
    x3        c9                            552
    x3        c12                           864
    x3        c26                           217
    x3        c37                           854
    x3        c47                           277
    x3        c61                           435
    x3        c63                           220
    x4        obj1                            1
    x4        c1                            465
    x4        c2                            765
    x4        c10                           129
    x4        c13                           732
    x4        c38                           416
    x4        c49                           816
    x4        c54                           434
    x4        c58                           604
    x4        c63                           737
    x5        obj1                            1
    x5        c3                            859
    x5        c13                           419
    x5        c16                           246
    x5        c27                           651
    x5        c37                           296
    x5        c44                           882
    x5        c51                           786
    x5        c53                           121
    x6        obj1                            1
    x6        c20                           445
    x6        c23                           913
    x6        c27                           644
    x6        c52                           588
    x6        c58                           267
    x6        c60                           707
    x7        obj1                            1
    x7        c14                           155
    x7        c45                           662
    x7        c54                           865
    x8        obj1                            1
    x8        c2                            826
    x8        c12                           725
    x8        c21                           835
    x8        c43                           869
    x8        c47                           567
    x9        obj1                            1
    x9        c1                            498
    x9        c27                           765
    x9        c43                           957
    x9        c52                           472
    x9        c62                           932
    x10       obj1                            1
    x10       c14                           130
    x10       c17                           101
    x10       c29                           896
    x10       c58                           617
    x10       c60                           262
    x10       c62                           507
    x10       c67                           345
    x10       c68                           167
    x11       obj1                            1
    x11       c4                            819
    x11       c5                            984
    x11       c17                           692
    x11       c20                           371
    x11       c31                           878
    x11       c45                           355
    x11       c52                           245
    x11       c58                           411
    x11       c70                           589
    x12       obj1                            1
    x12       c3                            464
    x12       c8                            506
    x12       c9                            663
    x12       c12                           775
    x12       c23                           342
    x12       c35                           739
    x12       c61                           882
    x12       c64                           119
    x12       c65                           516
    x12       c67                           471
    x13       obj1                            1
    x13       c5                            312
    x13       c13                           575
    x13       c26                           480
    x13       c38                           280
    x13       c46                           799
    x13       c63                           936
    x13       c66                           276
    x13       c70                           943
    x14       obj1                            1
    x14       c13                           896
    x14       c19                           563
    x14       c29                           841
    x14       c42                           151
    x14       c53                           395
    x15       obj1                            1
    x15       c10                           800
    x15       c16                           756
    x15       c34                           904
    x15       c41                           117
    x15       c53                           595
    x15       c61                           471
    x15       c66                           617
    x15       c68                           471
    x15       c69                           207
    x16       obj1                            1
    x16       c2                            579
    x16       c16                           432
    x16       c17                           890
    x16       c30                           290
    x16       c40                           670
    x16       c46                           541
    x16       c52                           822
    x16       c55                           881
    x16       c60                           834
    x16       c69                           552
    x17       obj1                            1
    x17       c3                            299
    x17       c10                           455
    x17       c13                           229
    x17       c20                           168
    x17       c24                           417
    x17       c28                           857
    x17       c43                           163
    x17       c49                           609
    x17       c55                           961
    x17       c57                           375
    x17       c61                           779
    x18       obj1                            1
    x18       c6                            580
    x18       c26                           837
    x18       c46                           404
    x18       c52                           942
    x19       obj1                            1
    x19       c14                           688
    x19       c16                           942
    x19       c56                           198
    x19       c61                           790
    x19       c65                           342
    x19       c69                           514
    x20       obj1                            1
    x20       c2                            412
    x20       c9                            565
    x20       c15                           762
    x20       c32                           875
    x20       c62                           394
    x20       c70                           466
    x21       obj1                            1
    x21       c3                            639
    x21       c14                           807
    x21       c21                           567
    x21       c46                           690
    x21       c59                           370
    x22       obj1                            1
    x22       c8                            454
    x22       c25                           179
    x22       c39                           666
    x22       c49                           229
    x22       c64                           278
    x22       c66                           526
    x23       obj1                            1
    x23       c5                            465
    x23       c39                           112
    x23       c67                           213
    x24       obj1                            1
    x24       c17                           640
    x24       c19                           218
    x24       c20                           675
    x24       c21                           150
    x24       c28                           894
    x24       c35                           928
    x24       c36                           102
    x24       c37                           176
    x24       c46                           555
    x24       c47                           728
    x24       c53                           280
    x24       c56                           611
    x24       c69                           736
    x25       obj1                            1
    x25       c8                            445
    x25       c13                           964
    x25       c57                           841
    x25       c60                           397
    x25       c65                           267
    x26       obj1                            1
    x26       c9                            635
    x26       c16                           435
    x26       c22                           423
    x26       c34                           116
    x26       c38                           175
    x26       c45                           362
    x26       c48                           642
    x26       c65                           785
    x27       obj1                            1
    x27       c26                           338
    x27       c34                           282
    x27       c40                           161
    x27       c53                           345
    x27       c67                           311
    x28       obj1                            1
    x28       c5                            459
    x28       c20                           305
    x28       c36                           955
    x28       c43                           418
    x28       c53                           862
    x28       c54                           797
    x28       c59                           176
    x28       c65                           738
    x29       obj1                            1
    x29       c24                           712
    x29       c29                           369
    x29       c36                           515
    x30       obj1                            1
    x30       c1                            905
    x30       c37                           657
    x30       c45                           268
    x30       c56                           805
    x31       obj1                            1
    x31       c49                           432
    x32       obj1                            1
    x32       c1                            424
    x32       c8                            644
    x32       c34                           368
    x32       c47                           554
    x32       c62                           281
    x33       obj1                            1
    x33       c5                            971
    x33       c17                           307
    x33       c18                           376
    x33       c28                           568
    x33       c30                           259
    x33       c42                           614
    x33       c67                           483
    x34       obj1                            1
    x34       c14                           322
    x34       c16                           751
    x34       c19                           845
    x34       c34                           403
    x34       c38                           124
    x34       c47                           817
    x34       c48                           389
    x35       obj1                            1
    x35       c2                            207
    x35       c19                           826
    x35       c29                           984
    x35       c31                           479
    x35       c33                           886
    x35       c52                           481
    x35       c56                           868
    x36       obj1                            1
    x36       c3                            234
    x36       c13                           632
    x36       c19                           497
    x36       c32                           718
    x36       c41                           439
    x36       c46                           596
    x37       obj1                            1
    x37       c8                            108
    x37       c20                           678
    x37       c23                           808
    x37       c26                           810
    x37       c30                           813
    x37       c33                           722
    x37       c56                           462
    x37       c60                           123
    x37       c66                           690
    x37       c68                           525
    x38       obj1                            1
    x38       c4                            240
    x38       c15                           157
    x38       c20                           646
    x38       c21                           726
    x38       c54                           264
    x39       obj1                            1
    x39       c34                           895
    x39       c43                           202
    x39       c46                           525
    x39       c57                           776
    x39       c68                           119
    x40       obj1                            1
    x40       c3                            116
    x40       c11                           884
    x40       c24                           557
    x40       c31                           227
    x40       c34                           367
    x40       c37                           195
    x40       c38                           306
    x40       c41                           773
    x40       c49                           737
    x40       c51                           471
    x40       c55                           182
    x41       obj1                            1
    x41       c27                           684
    x42       obj1                            1
    x42       c5                            477
    x42       c14                           508
    x42       c48                           463
    x42       c58                           515
    x42       c61                           699
    x42       c62                           934
    x42       c63                           271
    x42       c68                           815
    x43       obj1                            1
    x43       c18                           562
    x43       c19                           206
    x43       c24                           629
    x43       c33                           767
    x43       c48                           602
    x43       c57                           583
    x43       c66                           997
    x44       obj1                            1
    x44       c1                            629
    x44       c6                            636
    x44       c11                           182
    x44       c22                           216
    x44       c25                           373
    x44       c28                           351
    x44       c30                           230
    x44       c42                           822
    x44       c45                           201
    x44       c54                           231
    x44       c67                           452
    x44       c69                           668
    x45       obj1                            1
    x45       c5                            676
    x45       c20                           724
    x45       c35                           242
    x45       c36                           668
    x45       c61                           643
    x45       c63                           390
    x45       c67                           943
    x46       obj1                            1
    x46       c15                           232
    x46       c16                           583
    x46       c22                           946
    x46       c39                           401
    x46       c49                           748
    x47       obj1                            1
    x47       c10                           895
    x47       c22                           181
    x47       c32                           324
    x47       c39                           153
    x47       c50                           877
    x47       c52                           423
    x47       c59                           941
    x47       c66                           170
    x48       obj1                            1
    x48       c14                           847
    x48       c22                           265
    x48       c25                           340
    x48       c26                           375
    x48       c33                           296
    x48       c40                           417
    x48       c67                           450
    x49       obj1                            1
    x49       c2                            475
    x49       c7                            885
    x49       c8                            937
    x49       c17                           733
    x49       c31                           182
    x49       c35                           247
    x49       c41                           448
    x49       c55                           703
    x50       obj1                            1
    x50       c3                            729
    x50       c9                            810
    x50       c20                           726
    x50       c23                           333
    x51       obj1                            1
    x51       c1                            395
    x51       c3                            371
    x51       c9                            348
    x51       c26                           785
    x51       c27                           225
    x51       c32                           565
    x51       c35                           868
    x51       c46                           417
    x51       c58                           756
    x52       obj1                            1
    x52       c4                            994
    x52       c37                           675
    x52       c52                           999
    x52       c57                           596
    x52       c58                           199
    x52       c60                           738
    x52       c62                           863
    x53       obj1                            1
    x53       c23                           417
    x53       c28                           478
    x53       c40                           700
    x53       c46                           609
    x53       c48                           658
    x53       c68                           728
    x53       c70                           902
    x54       obj1                            1
    x54       c20                           465
    x54       c24                           415
    x54       c49                           942
    x54       c61                           923
    x55       obj1                            1
    x55       c18                           770
    x55       c27                           921
    x55       c43                           715
    x55       c50                           912
    x55       c63                           321
    x55       c64                           285
    x56       obj1                            1
    x56       c17                           874
    x56       c19                           494
    x56       c44                           237
    x56       c45                           939
    x56       c50                           156
    x56       c54                           896
    x56       c62                           981
    x57       obj1                            1
    x57       c11                           830
    x57       c12                           913
    x57       c16                           254
    x57       c22                           477
    x57       c34                           637
    x57       c35                           506
    x57       c38                           481
    x57       c39                           913
    x57       c44                           829
    x57       c51                           797
    x57       c68                           593
    x57       c69                           407
    x58       obj1                            1
    x58       c33                           404
    x58       c39                           883
    x58       c64                           174
    x59       obj1                            1
    x59       c1                            154
    x59       c22                           652
    x59       c35                           933
    x59       c40                           174
    x59       c42                           245
    x59       c49                           626
    x59       c64                           374
    x60       obj1                            1
    x60       c1                            840
    x60       c4                            845
    x60       c6                            864
    x60       c19                           258
    x60       c31                           410
    x60       c34                           248
    x60       c45                           913
    x60       c63                           272
    x61       obj1                            1
    x61       c2                            845
    x61       c13                           158
    x61       c17                           181
    x61       c48                           910
    x61       c52                           346
    x61       c61                           112
    x61       c66                           668
    x62       obj1                            1
    x62       c4                            549
    x62       c14                           243
    x62       c21                           608
    x62       c24                           989
    x62       c56                           593
    x62       c58                           570
    x62       c62                           890
    x62       c66                           107
    x63       obj1                            1
    x63       c7                            162
    x63       c21                           563
    x63       c27                           890
    x63       c33                           254
    x63       c36                           480
    x63       c51                           439
    x63       c58                           671
    x63       c64                           235
    x63       c69                           680
    x64       obj1                            1
    x64       c2                            641
    x64       c21                           556
    x64       c24                           897
    x64       c25                           100
    x64       c28                           570
    x64       c38                           884
    x64       c46                           339
    x64       c57                           735
    x64       c63                           957
    x64       c69                           736
    x65       obj1                            1
    x65       c16                           529
    x65       c18                           822
    x65       c54                           758
    x65       c62                           916
    x66       obj1                            1
    x66       c4                            168
    x66       c11                           981
    x66       c17                           993
    x66       c22                           921
    x66       c25                           443
    x66       c27                           804
    x66       c29                           558
    x66       c54                           544
    x66       c66                           318
    x67       obj1                            1
    x67       c14                           877
    x67       c34                           395
    x67       c55                           897
    x67       c57                           205
    x67       c61                           323
    x67       c68                           199
    x68       obj1                            1
    x68       c1                            198
    x68       c6                            544
    x68       c7                            943
    x68       c10                           453
    x68       c32                           871
    x68       c35                           660
    x68       c43                           560
    x68       c44                           870
    x68       c45                           620
    x68       c50                           720
    x68       c53                           277
    x69       obj1                            1
    x69       c1                            242
    x69       c14                           864
    x69       c15                           324
    x69       c19                           814
    x69       c21                           452
    x69       c29                           509
    x69       c30                           450
    x69       c41                           642
    x70       obj1                            1
    x70       c2                            707
    x70       c10                           516
    x70       c25                           185
    x70       c29                           101
    x70       c47                           590
    x70       c48                           995
    x70       c49                           396
    x70       c55                           866
    x70       c60                           338
    MARK0001  'MARKER'                 'INTEND'
RHS
    rhs       c1                           2375
    rhs       c2                           2729
    rhs       c3                           2248
    rhs       c4                           2036
    rhs       c5                           2172
    rhs       c6                           1312
    rhs       c7                           1047
    rhs       c8                           1547
    rhs       c9                           1787
    rhs       c10                          1624
    rhs       c11                          1439
    rhs       c12                          1639
    rhs       c13                          2506
    rhs       c14                          2721
    rhs       c15                           738
    rhs       c16                          2464
    rhs       c17                          3195
    rhs       c18                          1265
    rhs       c19                          2361
    rhs       c20                          2602
    rhs       c21                          2636
    rhs       c22                          2041
    rhs       c23                          1407
    rhs       c24                          2550
    rhs       c25                          1211
    rhs       c26                          1921
    rhs       c27                          2792
    rhs       c28                          2103
    rhs       c29                          2129
    rhs       c30                          1021
    rhs       c31                          1088
    rhs       c32                          1677
    rhs       c33                          1665
    rhs       c34                          2308
    rhs       c35                          2562
    rhs       c36                          1360
    rhs       c37                          1427
    rhs       c38                          1333
    rhs       c39                          1564
    rhs       c40                          1364
    rhs       c41                          1210
    rhs       c42                          1109
    rhs       c43                          1942
    rhs       c44                          1409
    rhs       c45                          2160
    rhs       c46                          2738
    rhs       c47                          1767
    rhs       c48                          2330
    rhs       c49                          2768
    rhs       c50                          1333
    rhs       c51                          1247
    rhs       c52                          2869
    rhs       c53                          1438
    rhs       c54                          2395
    rhs       c55                          2245
    rhs       c56                          1769
    rhs       c57                          2056
    rhs       c58                          2305
    rhs       c59                           884
    rhs       c60                          1700
    rhs       c61                          3029
    rhs       c62                          3349
    rhs       c63                          2052
    rhs       c64                          1152
    rhs       c65                          1324
    rhs       c66                          2185
    rhs       c67                          1834
    rhs       c68                          1809
    rhs       c69                          2250
    rhs       c70                          1450
BOUNDS
 LI bnd       x1        0
 LI bnd       x2        0
 LI bnd       x3        0
 LI bnd       x4        0
 LI bnd       x5        0
 LI bnd       x6        0
 LI bnd       x7        0
 LI bnd       x8        0
 LI bnd       x9        0
 LI bnd       x10       0
 LI bnd       x11       0
 LI bnd       x12       0
 LI bnd       x13       0
 LI bnd       x14       0
 LI bnd       x15       0
 LI bnd       x16       0
 LI bnd       x17       0
 LI bnd       x18       0
 LI bnd       x19       0
 LI bnd       x20       0
 LI bnd       x21       0
 LI bnd       x22       0
 LI bnd       x23       0
 LI bnd       x24       0
 LI bnd       x25       0
 LI bnd       x26       0
 LI bnd       x27       0
 LI bnd       x28       0
 LI bnd       x29       0
 LI bnd       x30       0
 LI bnd       x31       0
 LI bnd       x32       0
 LI bnd       x33       0
 LI bnd       x34       0
 LI bnd       x35       0
 LI bnd       x36       0
 LI bnd       x37       0
 LI bnd       x38       0
 LI bnd       x39       0
 LI bnd       x40       0
 LI bnd       x41       0
 LI bnd       x42       0
 LI bnd       x43       0
 LI bnd       x44       0
 LI bnd       x45       0
 LI bnd       x46       0
 LI bnd       x47       0
 LI bnd       x48       0
 LI bnd       x49       0
 LI bnd       x50       0
 LI bnd       x51       0
 LI bnd       x52       0
 LI bnd       x53       0
 LI bnd       x54       0
 LI bnd       x55       0
 LI bnd       x56       0
 LI bnd       x57       0
 LI bnd       x58       0
 LI bnd       x59       0
 LI bnd       x60       0
 LI bnd       x61       0
 LI bnd       x62       0
 LI bnd       x63       0
 LI bnd       x64       0
 LI bnd       x65       0
 LI bnd       x66       0
 LI bnd       x67       0
 LI bnd       x68       0
 LI bnd       x69       0
 LI bnd       x70       0
ENDATA
